p cnf 14 60
1 0
2 0
3 0
4 0
5 0
7 0
-1 7 11 0
-1 7 8 0
-1 11 12 0
-1 12 8 0
-1 -7 -11 -8 -12 0
-2 7 11 0
-2 7 9 0
-2 11 13 0
-2 13 9 0
-2 -7 -11 -9 -13 0
-3 7 11 0
-3 7 10 0
-3 11 14 0
-3 14 10 0
-3 -7 -11 -10 -14 0
-4 8 12 0
-4 8 9 0
-4 12 13 0
-4 13 9 0
-4 -8 -12 -9 -13 0
-5 8 12 0
-5 8 10 0
-5 12 14 0
-5 14 10 0
-5 -8 -12 -10 -14 0
-7 9 13 0
-7 9 10 0
-7 13 14 0
-7 14 10 0
-7 -9 -13 -10 -14 0
-6 -7 3 0
-6 -11 -3 0
-6 -8 2 0
-6 -12 -2 0
-6 -9 1 0
-6 -13 -1 0
-7 -6 3 0
-7 -10 -3 0
-7 -8 -1 0
-7 -12 1 0
-7 -9 -2 0
-7 -13 2 0
-8 -6 2 0
-8 -10 -2 0
-8 -7 -1 0
-8 -11 1 0
-8 -9 -4 0
-8 -13 4 0
-9 -6 1 0
-9 -10 -1 0
-9 -7 -2 0
-9 -11 2 0
-9 -8 -4 0
-9 -12 4 0
